NAME: random-80-9241
TYPE: TSP
COMMENT: size=80 seed=9241
DIMENSION: 162
EDGE_WEIGHT_TYPE: EUC_2D
NODE_COORD_SECTION
+0 487 904
-0 487 904
+1 949 671
-1 306 967
+2 224 730
-2 719 812
+3 906 729
-3 249 805
+4 113 752
-4 119 293
+5 544 867
-5 895 931
+6 67 610
-6 556 824
+7 588 822
-7 813 245
+8 417 961
-8 316 202
+9 577 26
-9 313 589
+10 593 839
-10 47 209
+11 945 408
-11 56 706
+12 314 333
-12 540 15
+13 169 124
-13 595 4
+14 619 371
-14 283 950
+15 729 192
-15 472 428
+16 342 665
-16 484 142
+17 522 246
-17 149 218
+18 715 865
-18 400 897
+19 518 262
-19 486 530
+20 812 428
-20 127 527
+21 716 396
-21 764 523
+22 646 301
-22 670 633
+23 484 841
-23 318 807
+24 780 145
-24 822 518
+25 386 549
-25 773 939
+26 277 824
-26 152 342
+27 968 782
-27 53 313
+28 317 718
-28 257 511
+29 250 157
-29 500 657
+30 180 798
-30 685 212
+31 739 615
-31 684 331
+32 309 544
-32 210 790
+33 79 820
-33 292 307
+34 649 731
-34 89 130
+35 99 555
-35 925 994
+36 814 671
-36 670 299
+37 872 888
-37 916 611
+38 787 164
-38 764 438
+39 659 514
-39 737 979
+40 13 852
-40 674 504
+41 844 850
-41 193 540
+42 721 917
-42 302 906
+43 886 652
-43 972 918
+44 864 863
-44 804 298
+45 622 484
-45 227 876
+46 940 902
-46 376 132
+47 926 335
-47 666 563
+48 579 430
-48 977 357
+49 345 642
-49 466 845
+50 2 712
-50 204 543
+51 470 984
-51 829 762
+52 344 255
-52 410 127
+53 123 889
-53 838 240
+54 575 594
-54 863 753
+55 746 591
-55 988 522
+56 823 653
-56 644 377
+57 928 451
-57 505 32
+58 832 102
-58 788 275
+59 910 328
-59 214 844
+60 65 894
-60 15 208
+61 105 744
-61 812 935
+62 587 106
-62 169 582
+63 266 790
-63 888 189
+64 941 188
-64 259 711
+65 482 49
-65 338 895
+66 69 144
-66 542 129
+67 14 674
-67 91 393
+68 706 607
-68 712 149
+69 355 443
-69 309 421
+70 792 4
-70 30 435
+71 479 796
-71 48 352
+72 307 261
-72 231 410
+73 810 131
-73 501 754
+74 824 947
-74 648 848
+75 622 805
-75 841 315
+76 313 388
-76 411 270
+77 707 423
-77 593 986
+78 891 665
-78 136 194
+79 350 733
-79 450 971
+80 174 802
-80 690 191
PRECEDENCE_SECTION
+0 -0
+1 -1
+2 -2
+3 -3
+4 -4
+5 -5
+6 -6
+7 -7
+8 -8
+9 -9
+10 -10
+11 -11
+12 -12
+13 -13
+14 -14
+15 -15
+16 -16
+17 -17
+18 -18
+19 -19
+20 -20
+21 -21
+22 -22
+23 -23
+24 -24
+25 -25
+26 -26
+27 -27
+28 -28
+29 -29
+30 -30
+31 -31
+32 -32
+33 -33
+34 -34
+35 -35
+36 -36
+37 -37
+38 -38
+39 -39
+40 -40
+41 -41
+42 -42
+43 -43
+44 -44
+45 -45
+46 -46
+47 -47
+48 -48
+49 -49
+50 -50
+51 -51
+52 -52
+53 -53
+54 -54
+55 -55
+56 -56
+57 -57
+58 -58
+59 -59
+60 -60
+61 -61
+62 -62
+63 -63
+64 -64
+65 -65
+66 -66
+67 -67
+68 -68
+69 -69
+70 -70
+71 -71
+72 -72
+73 -73
+74 -74
+75 -75
+76 -76
+77 -77
+78 -78
+79 -79
+80 -80
EOF
